NAME conduction_srl_ilp
* Max problem is converted into Min one
ROWS
 N  OBJ
 L  constraint1_6340
 L  constraint1_3051
 L  constraint1_3050
 L  constraint1_6000
 L  constraint1_680
 L  constraint2_6340
 L  constraint2_6341
 L  constraint2_6342
 L  constraint2_6343
 L  constraint2_3050
 L  constraint2_3051
 L  constraint2_3052
 L  constraint2_3053
 L  constraint2_6000
 L  constraint2_6001
 L  constraint2_6002
 L  constraint2_6003
 L  constraint2_680
 L  constraint2_681
 L  constraint2_682
 L  constraint2_683
COLUMNS
    MARKER    'MARKER'                 'INTORG'
    Z_634_0_0  OBJ       -7.6722866112321444e-02
    Z_634_0_0  constraint1_6340  1
    Z_634_0_0  constraint2_6340  1
    Z_634_0_1  OBJ       -1.2771363221128498e-01
    Z_634_0_1  constraint1_6340  1
    Z_634_0_1  constraint2_6341  1
    Z_634_0_2  OBJ       -6.1572165666963517e-02
    Z_634_0_2  constraint1_6340  1
    Z_634_0_2  constraint2_6342  1
    Z_634_0_3  OBJ       -1.6472249527842883e-01
    Z_634_0_3  constraint1_6340  1
    Z_634_0_3  constraint2_6343  1
    Z_634_0_4  OBJ       -4.6926884073100128e-01
    Z_634_0_4  constraint1_6340  1
    Z_305_1_0  OBJ       -1.0260386240000259e-03
    Z_305_1_0  constraint1_3051  1
    Z_305_1_0  constraint2_3050  1
    Z_305_1_1  OBJ       -5.5495498504035878e-03
    Z_305_1_1  constraint1_3051  1
    Z_305_1_1  constraint2_3051  1
    Z_305_1_2  OBJ       -8.5059704923942914e-01
    Z_305_1_2  constraint1_3051  1
    Z_305_1_2  constraint2_3052  1
    Z_305_1_3  OBJ       -2.6203067711979247e-03
    Z_305_1_3  constraint1_3051  1
    Z_305_1_3  constraint2_3053  1
    Z_305_1_4  OBJ       -4.0207055514969336e-02
    Z_305_1_4  constraint1_3051  1
    Z_305_0_0  OBJ       -2.9892936082597615e-01
    Z_305_0_0  constraint1_3050  1
    Z_305_0_0  constraint2_3050  1
    Z_305_0_1  OBJ       -3.4979897933056912e-02
    Z_305_0_1  constraint1_3050  1
    Z_305_0_1  constraint2_3051  1
    Z_305_0_2  OBJ       -1.7804029623458957e-02
    Z_305_0_2  constraint1_3050  1
    Z_305_0_2  constraint2_3052  1
    Z_305_0_3  OBJ       -7.4897187898835690e-02
    Z_305_0_3  constraint1_3050  1
    Z_305_0_3  constraint2_3053  1
    Z_305_0_4  OBJ       -4.7338952371867221e-01
    Z_305_0_4  constraint1_3050  1
    Z_600_0_0  OBJ       -1.1246519645222035e-04
    Z_600_0_0  constraint1_6000  1
    Z_600_0_0  constraint2_6000  1
    Z_600_0_1  OBJ       -4.2983833158161911e-03
    Z_600_0_1  constraint1_6000  1
    Z_600_0_1  constraint2_6001  1
    Z_600_0_2  OBJ       -8.6680492684297639e-01
    Z_600_0_2  constraint1_6000  1
    Z_600_0_2  constraint2_6002  1
    Z_600_0_3  OBJ       -7.0457620577742944e-04
    Z_600_0_3  constraint1_6000  1
    Z_600_0_3  constraint2_6003  1
    Z_600_0_4  OBJ       -2.8079648438977672e-02
    Z_600_0_4  constraint1_6000  1
    Z_68_0_0  OBJ       -7.5775003291873405e-05
    Z_68_0_0  constraint1_680  1
    Z_68_0_0  constraint2_680  1
    Z_68_0_1  OBJ       -2.6599776576820213e-03
    Z_68_0_1  constraint1_680  1
    Z_68_0_1  constraint2_681  1
    Z_68_0_2  OBJ       -8.9276850234825933e-01
    Z_68_0_2  constraint1_680  1
    Z_68_0_2  constraint2_682  1
    Z_68_0_3  OBJ       -1.0071283485850715e-03
    Z_68_0_3  constraint1_680  1
    Z_68_0_3  constraint2_683  1
    Z_68_0_4  OBJ       -3.4886166421818927e-03
    Z_68_0_4  constraint1_680  1
    MARKER    'MARKER'                 'INTEND'
RHS
    RHS1      constraint1_6340  1
    RHS1      constraint1_3051  1
    RHS1      constraint1_3050  1
    RHS1      constraint1_6000  1
    RHS1      constraint1_680  1
    RHS1      constraint2_6340  1
    RHS1      constraint2_6341  1
    RHS1      constraint2_6342  1
    RHS1      constraint2_6343  1
    RHS1      constraint2_3050  1
    RHS1      constraint2_3051  1
    RHS1      constraint2_3052  1
    RHS1      constraint2_3053  1
    RHS1      constraint2_6000  1
    RHS1      constraint2_6001  1
    RHS1      constraint2_6002  1
    RHS1      constraint2_6003  1
    RHS1      constraint2_680  1
    RHS1      constraint2_681  1
    RHS1      constraint2_682  1
    RHS1      constraint2_683  1
BOUNDS
 UP BND1      Z_634_0_0  1
 UP BND1      Z_634_0_1  1
 UP BND1      Z_634_0_2  1
 UP BND1      Z_634_0_3  1
 UP BND1      Z_634_0_4  1
 UP BND1      Z_305_1_0  1
 UP BND1      Z_305_1_1  1
 UP BND1      Z_305_1_2  1
 UP BND1      Z_305_1_3  1
 UP BND1      Z_305_1_4  1
 UP BND1      Z_305_0_0  1
 UP BND1      Z_305_0_1  1
 UP BND1      Z_305_0_2  1
 UP BND1      Z_305_0_3  1
 UP BND1      Z_305_0_4  1
 UP BND1      Z_600_0_0  1
 UP BND1      Z_600_0_1  1
 UP BND1      Z_600_0_2  1
 UP BND1      Z_600_0_3  1
 UP BND1      Z_600_0_4  1
 UP BND1      Z_68_0_0  1
 UP BND1      Z_68_0_1  1
 UP BND1      Z_68_0_2  1
 UP BND1      Z_68_0_3  1
 UP BND1      Z_68_0_4  1
QUADOBJ
    Z_305_1_0  Z_600_0_0  -2.3469387755102038e-02
    Z_305_1_0  Z_68_0_0  -2.3469387755102038e-02
    Z_305_1_1  Z_600_0_1  -2.3469387755102038e-02
    Z_305_1_1  Z_68_0_1  -2.3469387755102038e-02
    Z_305_1_2  Z_600_0_2  -2.3469387755102038e-02
    Z_305_1_2  Z_68_0_2  -2.3469387755102038e-02
    Z_305_1_3  Z_600_0_3  -2.3469387755102038e-02
    Z_305_1_3  Z_68_0_3  -2.3469387755102038e-02
    Z_305_1_4  Z_600_0_4  -2.3469387755102038e-02
    Z_305_1_4  Z_68_0_4  -2.3469387755102038e-02
    Z_305_0_0  Z_600_0_0  -2.2222222222222218e-04
    Z_305_0_0  Z_68_0_0  -2.2222222222222218e-04
    Z_305_0_1  Z_600_0_1  -2.2222222222222218e-04
    Z_305_0_1  Z_68_0_1  -2.2222222222222218e-04
    Z_305_0_2  Z_600_0_2  -2.2222222222222218e-04
    Z_305_0_2  Z_68_0_2  -2.2222222222222218e-04
    Z_305_0_3  Z_600_0_3  -2.2222222222222218e-04
    Z_305_0_3  Z_68_0_3  -2.2222222222222218e-04
    Z_305_0_4  Z_600_0_4  -2.2222222222222218e-04
    Z_305_0_4  Z_68_0_4  -2.2222222222222218e-04
    Z_600_0_0  Z_68_0_0  -1.9999999999999996e-01
    Z_600_0_1  Z_68_0_1  -1.9999999999999996e-01
    Z_600_0_2  Z_68_0_2  -1.9999999999999996e-01
    Z_600_0_3  Z_68_0_3  -1.9999999999999996e-01
    Z_600_0_4  Z_68_0_4  -1.9999999999999996e-01
ENDATA
